p cnf 20 26
-1 15 -2 12 18 0 
-3 -4 -2 12 18 0 
-5 6 9 18 0 
-6 5 9 -7 19 0 
-8 16 17 19 0 
-1 15 -9 5 6 20 0 
-6 5 9 -7 20 0 
-7 19 0 
-10 -11 -12 2 -6 5 9 -7 19 0 
-8 16 17 -7 19 0 
-12 2 -7 19 0 
-9 5 6 18 0 
-7 18 0 
-11 20 0 
-7 -6 5 9 19 0 
-7 20 0 
-12 2 -6 5 9 -7 19 0 
-1 15 20 0 
-8 16 17 -6 5 9 -7 19 0 
-13 -8 16 17 -7 19 0 
-12 2 -14 -15 1 -9 5 6 20 0 
-16 8 17 20 0 
-11 -12 2 -6 5 9 -7 19 0 
-17 8 16 20 0 
-6 5 9 -7 18 0 
-8 16 17 18 0 
